results/real/sos1/feb_17_400.in
Version identifier: 22.1.0.0 | 2022-03-09 | 1a383f8ce
CPXPARAM_Threads                                 1
CPXPARAM_MIP_Strategy_VariableSelect             3
CPXPARAM_TimeLimit                               599.99994172000004
1 of 1 MIP starts provided solutions.
MIP start 'm1' defined initial solution with objective 293.0000.
Tried aggregator 2 times.
MIP Presolve eliminated 47 rows and 1601 columns.
MIP Presolve added 36 rows and 9 columns.
MIP Presolve modified 38 coefficients.
Aggregator did 9 substitutions.
Reduced MIP has 2793 rows, 3600 columns, and 107850 nonzeros.
Reduced MIP has 3600 binaries, 0 generals, 0 SOSs, and 0 indicators.
Presolve time = 0.14 sec. (210.83 ticks)
Probing time = 0.02 sec. (14.58 ticks)
Tried aggregator 1 time.
Detecting symmetries...
MIP Presolve modified 10 coefficients.
Reduced MIP has 2793 rows, 3600 columns, and 107960 nonzeros.
Reduced MIP has 3600 binaries, 0 generals, 0 SOSs, and 0 indicators.
Presolve time = 0.10 sec. (157.86 ticks)
Probing time = 0.02 sec. (14.58 ticks)
Clique table members: 1990.
MIP emphasis: balance optimality and feasibility.
MIP search method: dynamic search.
Parallel mode: none, using 1 thread.
Root relaxation solution time = 0.04 sec. (44.28 ticks)

        Nodes                                         Cuts/
   Node  Left     Objective  IInf  Best Integer    Best Bound    ItCnt     Gap

*     0+    0                          293.0000    80200.0000              --- 
      0     0      400.0000   178      293.0000      400.0000      744   36.52%
*     0+    0                          400.0000      400.0000             0.00%
      0     0        cutoff            400.0000      400.0000      744    0.00%
Elapsed time = 0.48 sec. (601.67 ticks, tree = 0.01 MB, solutions = 2)

Root node processing (before b&c):
  Real time             =    0.48 sec. (601.88 ticks)
Sequential b&c:
  Real time             =    0.00 sec. (0.00 ticks)
                          ------------
Total (root+branch&cut) =    0.48 sec. (601.88 ticks)
Primal:	400
Dual:	400
Status:	Optimal
Time:	0.5
Sequence:
	1
	0
	9
	9
	6
	9
	0
	9
	9
	9
	0
	4
	9
	2
	9
	9
	9
	9
	0
	4
	9
	9
	9
	6
	0
	5
	9
	0
	9
	9
	0
	9
	9
	2
	9
	9
	9
	0
	9
	9
	0
	6
	9
	9
	9
	2
	9
	1
	9
	2
	9
	9
	2
	9
	6
	9
	5
	2
	9
	9
	9
	0
	9
	5
	0
	9
	1
	9
	9
	4
	4
	11
	4
	4
	2
	4
	1
	4
	4
	9
	4
	2
	4
	4
	9
	5
	9
	6
	9
	4
	4
	9
	4
	6
	9
	4
	9
	4
	2
	6
	9
	2
	5
	9
	1
	4
	1
	4
	1
	4
	5
	0
	4
	4
	0
	5
	4
	0
	4
	4
	0
	5
	9
	5
	0
	9
	5
	0
	4
	1
	2
	6
	4
	0
	1
	4
	0
	4
	1
	9
	1
	0
	4
	5
	2
	1
	4
	5
	0
	4
	6
	9
	0
	9
	4
	4
	0
	4
	4
	9
	0
	4
	5
	0
	4
	5
	0
	9
	5
	0
	5
	4
	0
	4
	5
	0
	6
	9
	5
	0
	6
	4
	0
	5
	4
	11
	0
	1
	4
	4
	0
	4
	6
	0
	4
	5
	2
	6
	9
	5
	9
	1
	0
	6
	9
	5
	0
	4
	5
	9
	5
	0
	9
	5
	9
	5
	2
	9
	5
	9
	5
	2
	4
	5
	9
	2
	4
	9
	1
	9
	11
	2
	9
	6
	2
	5
	9
	2
	5
	9
	0
	9
	1
	9
	9
	2
	9
	6
	4
	11
	0
	9
	1
	0
	1
	9
	0
	9
	1
	9
	1
	0
	5
	9
	0
	9
	1
	0
	1
	4
	1
	9
	5
	2
	9
	1
	2
	1
	9
	11
	0
	1
	9
	0
	5
	9
	0
	4
	5
	0
	9
	5
	2
	5
	4
	11
	0
	9
	9
	9
	0
	6
	9
	2
	9
	4
	9
	0
	5
	9
	0
	9
	6
	9
	2
	9
	5
	2
	1
	4
	4
	9
	0
	5
	4
	1
	0
	1
	9
	2
	1
	9
	9
	9
	5
	9
	2
	9
	9
	1
	9
	0
	9
	9
	0
	9
	9
	0
	4
	4
	0
	4
	4
	2
	4
	4
	11
	4
	4
	0
	4
	4
	2
	11
	4
	4
	0
	4
	9
	11
	9
	0
	5
	9
	2
	11
	9
	2
	9
	5
	2
	9
	9
	9
	1
	2
	9
	11
	2
	9
	9
	1
	4
	4
	0
	4
	4
	1
	0
	6
