results/real/sos1/feb_17_400.out
Version identifier: 22.1.1.0 | 2022-11-28 | 9160aff4d
CPXPARAM_Threads                                 1
CPXPARAM_MIP_Strategy_VariableSelect             3
CPXPARAM_TimeLimit                               599.99999087499998
1 of 1 MIP starts provided solutions.
MIP start 'm1' defined initial solution with objective 156.0000.
Tried aggregator 1 time.
MIP Presolve eliminated 19 rows and 1600 columns.
MIP Presolve modified 32 coefficients.
Reduced MIP has 2394 rows, 3600 columns, and 104644 nonzeros.
Reduced MIP has 3600 binaries, 0 generals, 0 SOSs, and 0 indicators.
Presolve time = 0.07 sec. (165.40 ticks)
Probing time = 0.01 sec. (14.58 ticks)
Tried aggregator 1 time.
Detecting symmetries...
MIP Presolve modified 9 coefficients.
Reduced MIP has 2394 rows, 3600 columns, and 104755 nonzeros.
Reduced MIP has 3600 binaries, 0 generals, 0 SOSs, and 0 indicators.
Presolve time = 0.05 sec. (154.47 ticks)
Probing time = 0.01 sec. (14.58 ticks)
Clique table members: 1591.
MIP emphasis: balance optimality and feasibility.
MIP search method: dynamic search.
Parallel mode: none, using 1 thread.
Root relaxation solution time = 0.02 sec. (38.74 ticks)

        Nodes                                         Cuts/
   Node  Left     Objective  IInf  Best Integer    Best Bound    ItCnt     Gap

*     0+    0                          156.0000    80200.0000              --- 
      0     0      400.0000    22      156.0000      400.0000      641  156.41%
*     0+    0                          400.0000      400.0000             0.00%
      0     0        cutoff            400.0000      400.0000      641    0.00%
Elapsed time = 0.22 sec. (516.43 ticks, tree = 0.01 MB, solutions = 2)

Root node processing (before b&c):
  Real time             =    0.22 sec. (516.63 ticks)
Sequential b&c:
  Real time             =    0.00 sec. (0.00 ticks)
                          ------------
Total (root+branch&cut) =    0.22 sec. (516.63 ticks)
Primal:	400
Dual:	400
Status:	Optimal
Time:	0.23
Sequence:
	1
	6
	9
	9
	0
	11
	9
	2
	6
	9
	0
	9
	6
	1
	2
	9
	11
	9
	0
	9
	9
	9
	9
	11
	0
	9
	9
	0
	9
	4
	6
	9
	9
	2
	6
	9
	9
	0
	9
	5
	0
	1
	9
	6
	9
	0
	4
	9
	9
	2
	9
	9
	9
	2
	5
	9
	9
	0
	11
	9
	1
	0
	9
	1
	0
	4
	5
	9
	0
	1
	5
	9
	0
	9
	9
	0
	9
	5
	9
	4
	2
	4
	9
	9
	9
	9
	9
	9
	0
	9
	4
	2
	9
	9
	9
	0
	9
	9
	1
	0
	9
	1
	0
	1
	4
	2
	1
	1
	4
	4
	1
	2
	9
	9
	0
	9
	4
	0
	4
	4
	0
	6
	4
	0
	5
	4
	2
	4
	6
	1
	11
	2
	4
	4
	1
	4
	1
	2
	5
	1
	5
	2
	4
	1
	11
	2
	4
	5
	0
	4
	11
	0
	1
	9
	0
	9
	9
	9
	4
	0
	9
	9
	9
	0
	6
	9
	0
	4
	9
	4
	9
	0
	9
	9
	2
	4
	4
	9
	5
	0
	1
	4
	0
	4
	4
	0
	4
	4
	0
	6
	5
	9
	0
	4
	4
	9
	5
	4
	1
	4
	0
	11
	9
	0
	9
	4
	0
	4
	9
	0
	9
	9
	5
	0
	9
	9
	9
	0
	9
	9
	4
	0
	9
	9
	9
	0
	4
	9
	2
	9
	5
	0
	9
	9
	0
	9
	11
	9
	0
	9
	9
	6
	5
	9
	1
	1
	2
	5
	5
	0
	9
	5
	0
	5
	9
	0
	4
	6
	0
	9
	5
	0
	5
	9
	0
	5
	6
	9
	1
	2
	5
	1
	2
	1
	5
	2
	1
	6
	2
	9
	11
	5
	5
	9
	1
	0
	6
	4
	0
	9
	6
	0
	5
	9
	0
	6
	5
	2
	5
	5
	2
	5
	5
	9
	2
	5
	4
	9
	9
	0
	1
	4
	2
	9
	9
	9
	2
	9
	9
	2
	9
	9
	2
	4
	4
	2
	4
	4
	9
	4
	9
	5
	0
	5
	4
	2
	4
	4
	0
	4
	1
	4
	4
	0
	4
	4
	9
	4
	4
	0
	4
	4
	9
	4
	0
	9
	4
	9
	9
	9
	9
	0
	4
	9
	9
	9
	4
	4
	1
	4
	4
	2
	1
	4
	5
	1
	4
	6
	1
	4
	5
	1
	2
	5
	11
	5
	2
	5
	4
	9
	5
	2
	4
	4
	0
	5
	5
	2
	4
	6
